# Node Net
281   1
2381   1
 67   1
4891   1
2870   2
4870   2
4848   2
 46   2
2731   3
4879   3
1890   3
4837   3
 40   4
 71   4
840   4
4878   4
141   5
3290   5
3641   5
4761   5
  7   6
1960   6
4843   6
4690   6
3571   7
1400   7
3501   7
4885   8
4898   8
4411   8
4872   9
4130   9
 18   9
 65  10
3781  10
 37  11
  6  11
 50  12
1750  12
560  13
4550  13
